qe/outputs/qe/qe_queries/T=5,eliminate=[I_0,I_1,I_2,I_3,I_4,C].smt2
; benchmark generated from python API
(set-info :status unknown)
(declare-fun S_1 () Real)
(declare-fun S_2 () Real)
(declare-fun S_3 () Real)
(declare-fun S_4 () Real)
(declare-fun S_0 () Real)
(declare-fun A_1 () Real)
(declare-fun L_1 () Real)
(declare-fun B () Real)
(declare-fun L_4 () Real)
(declare-fun A_4 () Real)
(declare-fun L_2 () Real)
(declare-fun A_2 () Real)
(declare-fun A_3 () Real)
(declare-fun L_3 () Real)
(declare-fun L_0 () Real)
(declare-fun A_0 () Real)
(assert
 (let (($x1865 (<= (+ (* (- 1.0) S_2) (* (- 1.0) B) (* (- 1.0) L_1) A_1) 0.0)))
 (let (($x1575 (<= (+ (* (- 1.0) S_4) (* (- 1.0) L_3) (* (- 1.0) B) A_3) 0.0)))
 (let (($x1271 (<= (+ (* (- 1.0) S_3) (* (- 1.0) B) (* (- 1.0) L_2) A_2) 0.0)))
 (let (($x1285 (<= (+ A_0 (* (- 1.0) S_1) (* (- 1.0) B) (* (- 1.0) L_1)) 0.0)))
 (let (($x1324 (>= B 0.0)))
 (let ((?x1321 (* (- 2.0) A_1)))
 (let ((?x1320 (* 2.0 L_1)))
 (let ((?x1190 (* 2.0 B)))
 (let ((?x1704 (* (- 2.0) L_0)))
 (let ((?x1702 (* 2.0 A_0)))
 (let ((?x713 (* (- 1.0) A_2)))
 (let (($x2115 (= B 0.0)))
 (let (($x1290 (<= (+ (* (- 1.0) A_0) S_0 B L_1) 0.0)))
 (let ((?x702 (* (- 1.0) L_0)))
 (let ((?x711 (* (- 1.0) L_1)))
 (let (($x565 (= ?x711 ?x702)))
 (let (($x35172 (or $x565 $x1290 $x2115 (<= (+ ?x713 L_2 S_4 ?x1702 ?x1704 ?x1190 ?x1320 ?x1321) 0.0))))
 (let ((?x2756 (* (- 4.0) A_1)))
 (let ((?x2432 (* 4.0 L_1)))
 (let ((?x2742 (* 4.0 B)))
 (let ((?x2771 (* (- 3.0) L_0)))
 (let ((?x2633 (* 3.0 A_0)))
 (let ((?x10181 (* (- (/ 1.0 2.0)) L_0)))
 (let ((?x10183 (* (- (/ 1.0 2.0)) S_3)))
 (let ((?x10197 (* (/ 1.0 2.0) A_0)))
 (let ((?x804 (* (- 1.0) A_3)))
 (let (($x2132 (<= (+ A_2 (* (- 1.0) L_2) (* (- 1.0) S_3)) 0.0)))
 (let (($x29926 (or $x2132 (<= (+ L_3 ?x804 S_4 ?x711 A_1 (* (- 1.0) S_3)) 0.0) (<= (+ L_3 ?x804 S_4 ?x10197 ?x10183 ?x10181) 0.0))))
 (let ((?x824 (* (- 1.0) A_0)))
 (let ((?x1597 (* (- 1.0) S_4)))
 (let ((?x720 (* (- 1.0) L_2)))
 (let (($x9927 (<= (+ (* (- (/ 1.0 3.0)) S_4) (* (- (/ 2.0 3.0)) A_0) (* (/ 2.0 3.0) L_0) S_1) 0.0)))
 (let (($x1882 (<= (+ (* (- 1.0) L_3) A_3 ?x1597) 0.0)))
 (let (($x30459 (= ?x720 ?x711)))
 (let ((?x1275 (* (- 3.0) A_2)))
 (let ((?x1274 (* 3.0 L_2)))
 (let ((?x1273 (* 3.0 B)))
 (let ((?x1300 (* 2.0 A_1)))
 (let ((?x1315 (* (- 2.0) L_1)))
 (let (($x1268 (<= (+ S_4 A_0 ?x702 ?x1190 (* 2.0 L_2) (* (- 2.0) A_2)) 0.0)))
 (let (($x6311 (<= (+ ?x711 A_1 S_3 (* 2.0 L_2) ?x1190 (* (- 2.0) A_2)) 0.0)))
 (let (($x77671 (or (<= (+ A_0 ?x702 (* 2.0 S_3) ?x1273 ?x1274 ?x1275) 0.0) $x2115 $x6311 $x30459)))
 (let ((?x1471 (* 2.0 S_4)))
 (let ((?x1326 (* (- 2.0) A_3)))
 (let ((?x1325 (* 2.0 L_3)))
 (let (($x3186 (<= (+ ?x1315 ?x1300 B L_0 L_2 ?x824 ?x713) 0.0)))
 (let (($x38496 (or $x2115 $x3186 (<= (+ ?x1325 ?x1326 ?x1471 A_0 ?x702 B L_2 ?x713) 0.0) $x30459)))
 (let (($x75125 (or (<= (+ ?x824 L_0 (* 2.0 S_1) B L_2 ?x713) 0.0) $x2115 $x30459)))
 (let ((?x729 (* (- 1.0) L_3)))
 (let (($x30455 (= ?x729 ?x720)))
 (let ((?x1195 (* 3.0 A_2)))
 (let ((?x1227 (* (- 3.0) L_2)))
 (let ((?x742 (* (- 1.0) B)))
 (let ((?x1646 (* 3.0 A_1)))
 (let ((?x1645 (* (- 3.0) L_1)))
 (let ((?x1329 (* (- 2.0) B)))
 (let ((?x1647 (* 2.0 L_0)))
 (let ((?x1648 (* (- 2.0) A_0)))
 (let (($x4126 (<= (+ ?x1195 ?x1227 ?x1190 L_0 ?x1325 ?x824 ?x1326) 0.0)))
 (let (($x76948 (or $x2115 $x4126 (<= (+ ?x1648 ?x1647 ?x1329 ?x1645 L_3 ?x1646 ?x804) 0.0) $x30455)))
 (let (($x76678 (or $x2115 (<= (+ ?x824 L_0 (* 3.0 S_2) ?x1190 ?x1325 ?x1326) 0.0) $x30455)))
 (let (($x3182 (<= (+ ?x729 A_3 ?x711 A_1 B (* 2.0 L_2) (* (- 2.0) A_2)) 0.0)))
 (let (($x1312 (<= (+ A_0 ?x702 B ?x1274 (* (- 2.0) L_3) ?x1275 (* 2.0 A_3)) 0.0)))
 (let (($x1613 (<= (+ L_1 (* (- 1.0) A_1) (* 2.0 S_2) L_3 B ?x804) 0.0)))
 (let ((?x3325 (* (- 4.0) A_3)))
 (let ((?x3327 (* 4.0 L_3)))
 (let ((?x7647 (* 3.0 S_4)))
 (let (($x1568 (<= (+ ?x711 A_1 ?x1471 (* 3.0 L_3) ?x1273 (* (- 3.0) A_3)) 0.0)))
 (let (($x78334 (or $x1568 $x2115 (<= (+ A_2 ?x720 S_4 ?x1190 ?x1325 ?x1326) 0.0) (<= (+ ?x7647 A_0 ?x702 ?x2742 ?x3327 ?x3325) 0.0) $x30455)))
 (let (($x78366 (or $x2115 (<= (+ ?x1648 ?x1647 (* 3.0 S_1) B L_3 ?x804) 0.0) (<= (+ A_2 ?x720 ?x824 L_0 S_1 L_3 B ?x804) 0.0) $x30455)))
 (let (($x1924 (<= (+ ?x824 L_0 ?x1329 ?x1315 L_2 ?x1300 ?x713) 0.0)))
 (let (($x76908 (or $x1924 $x2115 (<= (+ A_2 ?x720 ?x824 L_0 L_3 ?x711 A_1 ?x804) 0.0) $x30455)))
 (let (($x1876 (<= (+ L_3 ?x804 S_4 A_0 ?x702 B L_1 (* (- 1.0) A_1)) 0.0)))
 (let (($x78073 (or (not $x1924) (<= (+ ?x824 (* (- 1.0) S_3) L_0 ?x1329 ?x1315 ?x1300) 0.0))))
 (let (($x13062 (<= (+ ?x713 L_2 S_3 A_0 ?x702 B L_1 (* (- 1.0) A_1)) 0.0)))
 (let (($x13050 (<= (+ ?x713 L_2 A_0 ?x702 L_1 ?x729 (* (- 1.0) A_1) A_3) 0.0)))
 (let ((?x700 (* (- 1.0) L_4)))
 (let (($x30258 (= ?x700 ?x729)))
 (let ((?x761 (* (- 1.0) A_4)))
 (let ((?x1286 (* 2.0 S_1)))
 (let ((?x2788 (* 3.0 L_0)))
 (let ((?x2787 (* (- 3.0) A_0)))
 (let (($x77846 (or $x2115 (<= (+ ?x2787 ?x2788 (* 4.0 S_1) ?x761 B L_4) 0.0) (<= (+ ?x729 A_3 ?x824 L_0 S_1 ?x761 B L_4) 0.0) (<= (+ A_2 ?x720 ?x1648 ?x1647 ?x1286 ?x761 B L_4) 0.0) $x30258)))
 (let (($x1610 (<= (+ ?x711 A_1 (* (- 1.0) S_2)) 0.0)))
 (let (($x24454 (or $x1610 (<= (+ L_3 ?x804 S_4 A_0 (* (- 1.0) S_2) ?x702) 0.0))))
 (let (($x9471 (<= (+ A_0 ?x702 A_4 ?x742 ?x700 (* 2.0 L_2) (* (- 2.0) A_2)) 0.0)))
 (let ((?x1626 (* 2.0 A_4)))
 (let ((?x1573 (* (- 3.0) A_3)))
 (let ((?x1299 (* (- 2.0) L_4)))
 (let ((?x1367 (* 3.0 L_3)))
 (let (($x1628 (<= (+ ?x711 A_1 ?x1367 ?x1299 B ?x1573 ?x1626) 0.0)))
 (let (($x77423 (or $x1628 $x2115 (<= (+ A_2 ?x720 A_4 B ?x700 ?x1325 ?x1326) 0.0) $x9471 $x30455)))
 (let ((?x1194 (* (- 3.0) B)))
 (let (($x9405 (<= (+ ?x2787 ?x2788 ?x761 ?x1194 L_4 (* (- 4.0) L_1) (* 4.0 A_1)) 0.0)))
 (let (($x76697 (or $x2115 $x9405 (<= (+ A_2 ?x720 ?x1648 ?x1647 ?x761 ?x742 L_4 ?x1315 ?x1300) 0.0) (<= (+ ?x729 A_3 ?x824 L_0 ?x761 L_4 ?x711 A_1) 0.0) $x30258)))
 (let (($x8544 (<= (+ A_0 ?x702 (* 3.0 A_4) B (* (- 3.0) L_4) ?x3327 ?x3325) 0.0)))
 (let ((?x1654 (* 3.0 A_3)))
 (let ((?x1653 (* (- 3.0) L_3)))
 (let ((?x1435 (* 2.0 L_4)))
 (let ((?x1655 (* (- 2.0) A_4)))
 (let ((?x724 (* (- 1.0) A_1)))
 (let (($x75851 (or $x2115 (<= (+ L_1 ?x724 (* 3.0 S_3) ?x1655 ?x1190 ?x1435) 0.0) $x30258)))
 (let ((?x3311 (* 3.0 L_4)))
 (let ((?x3310 (* (- 3.0) A_4)))
 (let (($x76042 (or $x2115 (<= (+ ?x824 L_0 (* 4.0 S_3) ?x3310 ?x1273 ?x3311) 0.0) $x30258)))
 (let (($x75951 (or $x1882 (<= (+ ?x1597 ?x1648 ?x1647 ?x1194 ?x1645 ?x1646) 0.0) (<= (+ ?x1195 ?x1227 (* (- 2.0) S_4) L_0 ?x824) 0.0))))
 (let (($x77463 (or $x1882 $x1924 (<= (+ A_2 ?x720 ?x1597 ?x824 L_0 ?x742 ?x711 A_1) 0.0))))
 (let (($x9181 (<= (+ ?x824 L_0 ?x761 ?x742 L_4 (* (- 2.0) L_2) (* 2.0 A_2)) 0.0)))
 (let (($x77593 (or $x2115 (<= (+ ?x1653 ?x1654 L_1 ?x724 ?x1655 ?x1190 ?x1435) 0.0) $x9181 $x30258)))
 (let (($x76365 (or (not (<= (+ ?x824 L_0 ?x1194 ?x1227 ?x1325 ?x1195 ?x1326) 0.0)) (<= (+ A_2 ?x720 A_4 ?x742 ?x700 ?x1325 ?x1326) 0.0) $x9181 $x30258)))
 (let ((?x1303 (* 2.0 A_3)))
 (let ((?x1307 (* (- 2.0) L_3)))
 (let (($x9064 (<= (+ ?x824 L_0 (* 2.0 S_2) ?x761 B L_4) 0.0)))
 (let (($x76321 (or $x2115 $x9064 (<= (+ ?x1307 ?x1303 ?x824 L_0 S_2 ?x1655 ?x1190 ?x1435) 0.0) $x30258)))
 (let (($x3283 (<= (+ ?x729 A_3 L_1 ?x724 S_2 ?x761 B L_4) 0.0)))
 (let (($x36088 (or $x2115 $x3283 (<= (+ ?x1320 ?x1321 (* 3.0 S_2) ?x761 B L_4) 0.0) $x30258)))
 (let (($x9956 (<= (+ (* (- (/ 2.0 3.0)) S_4) (* (- (/ 1.0 3.0)) A_0) (* (/ 1.0 3.0) L_0) S_2) 0.0)))
 (let ((?x9699 (* (/ 1.0 3.0) L_0)))
 (let ((?x9923 (* (- (/ 1.0 3.0)) A_0)))
 (let ((?x9907 (* (- (/ 2.0 3.0)) S_4)))
 (let (($x4543 (<= (+ (* (/ 1.0 2.0) L_1) (* (- (/ 1.0 2.0)) A_1) (* (- (/ 1.0 2.0)) S_4) S_2) 0.0)))
 (let (($x17941 (or $x1610 (<= (+ ?x713 L_2 S_4 ?x1702 (* (- 2.0) S_2) ?x1704) 0.0))))
 (let ((?x4711 (* (- (/ 1.0 2.0)) S_4)))
 (let ((?x4682 (* (- (/ 1.0 2.0)) A_1)))
 (let ((?x4539 (* (/ 1.0 2.0) L_1)))
 (let (($x32546 (or $x565 $x1290 $x2115 (<= (+ ?x2633 ?x2771 A_4 ?x1273 ?x700 ?x2432 ?x2756) 0.0))))
 (let (($x79132 (or $x565 $x1290 $x2115 (<= (+ ?x713 L_2 ?x1702 ?x1704 A_4 B ?x700 ?x1320 ?x1321) 0.0))))
 (let (($x2719 (<= (+ ?x1702 ?x1704 S_3 ?x1273 (* 3.0 L_1) (* (- 3.0) A_1)) 0.0)))
 (let (($x13646 (or $x2132 (<= (+ ?x1315 ?x1300 S_4 (* (- 3.0) S_3)) 0.0) (<= (+ S_4 A_0 ?x702 (* (- 2.0) S_3)) 0.0))))
 (let (($x77491 (or $x2132 (<= (+ (* (- (/ 1.0 2.0)) A_0) (* (/ 1.0 2.0) L_0) ?x10183 S_1) 0.0))))
 (let (($x13466 (or (<= (+ ?x711 A_1 (* (- 2.0) S_3) ?x729 ?x742 A_3) 0.0) $x2132 (<= (+ A_0 ?x702 (* (- 3.0) S_3) ?x1329 ?x1307 ?x1303) 0.0))))
 (let (($x13398 (or $x2132 (<= (+ ?x1315 ?x1300 (* (- 3.0) S_3) A_4 ?x742 ?x700) 0.0) (<= (+ A_0 ?x702 (* (- 2.0) S_3) A_4 ?x742 ?x700) 0.0))))
 (let (($x12680 (<= (+ ?x713 L_2 A_0 (* (- 1.0) S_2) ?x702 ?x729 ?x742 A_3) 0.0)))
 (let (($x12439 (or $x1610 (<= (+ ?x713 L_2 S_3 A_0 (* (- 1.0) S_2) ?x702) 0.0))))
 (let (($x76735 (or $x2115 (<= (+ ?x713 L_2 (* 2.0 S_3) ?x761 B L_4) 0.0) $x30258)))
 (let (($x12421 (<= (+ ?x713 L_2 ?x1702 (* (- 2.0) S_2) ?x1704 A_4 ?x742 ?x700) 0.0)))
 (let (($x8684 (<= (+ ?x824 L_0 ?x3310 ?x742 ?x3311 (* (- 4.0) L_3) (* 4.0 A_3)) 0.0)))
 (let (($x11361 (<= (+ ?x1325 ?x1326 A_0 (* (- 1.0) S_3) ?x702 ?x1626 ?x1329 ?x1299) 0.0)))
 (let (($x3295 (<= (+ L_3 ?x804 ?x711 A_1 (* (- 1.0) S_3) A_4 ?x742 ?x700) 0.0)))
 (let (($x1306 (<= (+ A_0 ?x702 A_4 B ?x700 (* 2.0 L_2) (* (- 2.0) A_2)) 0.0)))
 (let (($x75557 (or $x1306 $x2115 (<= (+ A_4 ?x700 ?x1315 ?x1300 ?x1274 ?x1190 ?x1275) 0.0) $x30459)))
 (let (($x11242 (<= (+ L_3 ?x804 A_0 (* (- 1.0) S_2) ?x702 A_4 ?x742 ?x700) 0.0)))
 (let (($x31461 (or $x565 $x1290 (<= (+ L_3 ?x804 A_0 ?x702 A_4 ?x700 L_1 ?x724) 0.0) $x2115)))
 (let ((?x10659 (+ ?x1325 ?x1326 A_0 ?x702 ?x1626 ?x742 ?x1299 L_2 ?x713)))
 (let (($x10657 (<= ?x10659 0.0)))
 (let (($x1328 (<= (+ ?x824 L_0 ?x1194 ?x1227 ?x1325 ?x1195 ?x1326) 0.0)))
 (let (($x78964 (or $x2115 (<= (+ L_3 ?x804 ?x711 A_1 A_4 ?x700 L_2 ?x713) 0.0) $x10657 $x30459)))
 (let (($x9729 (or $x1610 (<= (+ ?x2633 ?x2771 (* (- 4.0) S_2) A_4 ?x742 ?x700) 0.0))))
 (let ((?x3328 (* (- 3.0) L_4)))
 (let ((?x3326 (* 3.0 A_4)))
 (let ((?x7661 (* (- 4.0) S_4)))
 (let (($x31259 (or $x1882 (<= (+ ?x711 A_1 (* (- 3.0) S_4) ?x1626 ?x1329 ?x1299) 0.0) (<= (+ A_2 ?x720 (* (- 2.0) S_4) A_4 ?x742 ?x700) 0.0) (<= (+ ?x7661 A_0 ?x702 ?x3326 ?x1194 ?x3328) 0.0))))
 (let (($x8893 (or $x1610 (<= (+ ?x1702 ?x1704 (* (- 3.0) S_2) ?x742 ?x729 A_3) 0.0))))
 (let (($x75482 (or $x2115 (<= (+ L_3 ?x804 S_4 ?x711 A_1 B L_2 ?x713) 0.0) (not $x3186) $x30459)))
 (let (($x76709 (or $x2115 (<= (+ ?x729 A_3 L_1 ?x724 ?x761 L_4 ?x720 A_2) 0.0) (<= (+ ?x1320 ?x1321 ?x761 ?x1329 L_4 ?x1227 ?x1195) 0.0) $x30258)))
 (let (($x1640 (<= (+ L_1 ?x724 L_3 (* (- 2.0) L_2) ?x742 (* 2.0 A_2) ?x804) 0.0)))
 (let (($x1918 (<= (+ ?x729 A_3 ?x1702 ?x1704 ?x1190 (* 3.0 L_1) (* (- 3.0) A_1)) 0.0)))
 (let (($x29909 (or $x565 $x1290 (<= (+ A_0 ?x702 B ?x1320 ?x720 ?x1321 A_2) 0.0) $x2115)))
 (let (($x2323 (or (<= (+ A_0 ?x702 (* (- 2.0) S_2) ?x742 ?x720 A_2) 0.0) $x1610)))
 (and (<= ?x711 ?x702) (<= ?x700 ?x729) (<= ?x720 ?x711) (<= ?x729 ?x720) (or (<= (+ S_2 B L_2 ?x713) 0.0) $x30459) (or $x565 $x1290 (<= (+ S_1 B L_1 ?x724) 0.0)) (or (<= (+ ?x824 L_0 ?x742 ?x1299 L_2 ?x1300 ?x713) 0.0) $x2115 $x30459) $x2323 $x29909 (or $x565 $x1290 $x1918 $x2115) (or $x1640 $x2115 $x30455) $x76709 $x75482 $x8893 (or (<= (+ S_3 L_3 B ?x804) 0.0) $x30455) $x31259 $x9729 (or $x1610 (<= (+ ?x1702 ?x1704 S_3 (* (- 3.0) S_2)) 0.0)) (or $x1610 (<= (+ S_4 ?x2633 ?x2771 (* (- 4.0) S_2)) 0.0)) (or (<= (+ S_4 ?x761 B L_4) 0.0) $x30258) $x78964 (or $x1328 $x2115 (not $x10657) (= ?x10659 0.0) $x30258) (or (<= (+ ?x824 L_0 ?x742 ?x1315 L_2 ?x1300 ?x713) 0.0) $x2115 $x30459) $x31461 (or $x1610 $x11242) $x75557 (or $x2132 $x3295 $x11361) (or $x2115 $x8684 $x30258) (or $x1610 $x12421) (or $x2115 (<= (+ ?x713 L_2 ?x761 ?x742 L_4 ?x1307 ?x1303) 0.0) $x30258) $x76735 $x12439 (or $x1610 $x12680) $x13398 $x13466 $x77491 $x13646 (or $x565 $x1290 $x2115 $x2719) (or $x565 $x1290 (<= (+ A_0 ?x702 S_2 ?x1190 ?x1320 ?x1321) 0.0) $x2115) $x79132 $x32546 (or $x1882 (<= (+ ?x4539 ?x4682 ?x4711 ?x720 ?x742 A_2) 0.0)) $x17941 (or $x1882 $x4543) (or $x1882 (<= (+ ?x9907 ?x9923 ?x9699 ?x720 ?x742 A_2) 0.0)) (or $x1882 $x9956) (or $x2115 $x3283 $x9064 $x30258) $x36088 $x76321 $x76365 $x77593 $x77463 $x75951 $x76042 $x75851 (or $x2115 (<= (+ L_1 ?x724 ?x1655 ?x742 ?x1435 ?x1653 ?x1654) 0.0) $x30258) (or $x1628 $x2115 $x4126 $x8544 $x30455) $x76697 $x77423 $x24454 $x77846 (or $x565 $x1290 $x2115 $x13050) (or $x565 $x1290 $x2115 $x13062) (or $x1924 $x2132) $x78073 (or $x565 $x1290 $x1876 $x2115) $x76908 $x78366 $x78334 (or $x1613 $x2115 $x30455) (or $x1312 $x2115 $x3182 $x30459) $x76678 $x76948 (or $x2115 (<= (+ ?x824 L_0 ?x742 ?x729 ?x1195 ?x1326) 0.0) $x30455) (or $x2115 (<= (+ ?x824 L_0 ?x742 ?x1227 ?x1325 ?x1195 ?x1326) 0.0) $x30455) $x75125 $x38496 $x77671 (or $x1268 $x2115 (<= (+ ?x1315 ?x1300 S_4 ?x1273 ?x1274 ?x1275) 0.0) $x30459) (or $x1882 $x9927 (<= (+ A_2 ?x720 ?x1597 ?x824 L_0 S_1) 0.0)) $x29926 (or $x565 $x1290 $x2115 (<= (+ S_4 ?x2633 ?x2771 ?x2742 ?x2432 ?x2756) 0.0)) $x35172 $x1324 $x1285 $x1271 (<= (+ L_1 ?x724 S_1) 0.0) $x1575 (<= (+ ?x824 L_0 S_0) 0.0) (<= (+ L_3 ?x804 S_3) 0.0) (<= (+ ?x713 L_2 S_2) 0.0) (<= (+ S_4 ?x761 L_4) 0.0) $x1865 (<= (+ (* (- 1.0) S_1) S_0) 0.0) (<= (+ ?x1597 S_3) 0.0) (<= (+ (* (- 1.0) S_3) S_2) 0.0) (<= (+ (* (- 1.0) S_2) S_1) 0.0))))))))))))))))))))))))))))))))))))))))))))))))))))))))))))))))))))))))))))))))))))))))))))))))))))))))))))))))))))))))))))))))))))))))))))))))))))))))))))))))))
(check-sat)
